51966 28190
13988 49748
43753 19048
25335 19528
62688 56605
40745 58464
8197 62707
9299 28794
24939 44554
28261 62477
26570 15360
53225 52751
22090 17285
30933 44351
42039 47461
15700 22329
43864 52725
33854 3171
56864 47250
38276 5793
698 44818
420 19804
52891 18066
47599 26045
65042 58219
49943 48044
30196 46695
53306 6295
46377 6394
29719 53500
62452 46226
62042 3501
21455 53442
57935 526
15467 29995
27332 6762
49980 53110
33767 23773
53325 38587
826 53810
18771 41477
48506 57555
18325 792
432 7243
38674 40531
53329 30999
29770 28490
34679 18514
10651 12340
44088 30536
26305 12365
63398 6648
49344 36569
37403 20811
2206 12696
37288 46389
8884 55938
24732 11517
62865 33899
29722 22798
22949 28587
11439 7844
18020 30616
16369 27957
61919 37816
27141 22312
17421 5760
50611 30527
32510 21547
18827 23511
